
Gurobi 11.0.0 (linux64, gurobi_cl) logging started Fri Nov 22 11:36:49 2024

Set parameter LogFile to value "gurobi.log"
Using license file /home/eliasinul/anaconda3/envs/drb_osemosys/bin/../lib/gurobi.lic
Restricted license - for non-production use only - expires 2025-11-24

Gurobi 11.0.0 (linux64, gurobi_cl) logging started Fri Nov 22 11:49:42 2024

Set parameter LogFile to value "gurobi.log"
Using license file /home/eliasinul/anaconda3/envs/drb_osemosys/bin/../lib/gurobi.lic
Restricted license - for non-production use only - expires 2025-11-24

Gurobi 11.0.0 (linux64, gurobi_cl) logging started Fri Nov 22 11:49:50 2024

Set parameter LogFile to value "gurobi.log"
Using license file /home/eliasinul/anaconda3/envs/drb_osemosys/bin/../lib/gurobi.lic
Restricted license - for non-production use only - expires 2025-11-24
